solution status: optimal solution found
objective value:                    0.999999704438492
$_134_y                                            25 	(obj:0)
$_134_z                                            24 	(obj:0)
$_152_y                              19.9999999732338 	(obj:0)
$_152_z                              18.9999999960453 	(obj:0)
$_138_y                              24.0000001572966 	(obj:0)
$_138_z                                            21 	(obj:0)
$_144_y                                            25 	(obj:0)
$_144_z                                            20 	(obj:0)
$_148_y                              23.0000001146571 	(obj:0)
$_148_z                              24.0000000062007 	(obj:0)
$_136_y                                            25 	(obj:0)
$_136_z                              22.0000000046096 	(obj:0)
$_133_y                              24.0000000020825 	(obj:0)
$_133_z                              23.0000000112093 	(obj:0)
$_135_y                                            25 	(obj:0)
$_135_z                                            25 	(obj:0)
$_153_y                                19.99999999012 	(obj:0)
$_153_z                              19.9999999855803 	(obj:0)
$_147_y                              24.0000000165339 	(obj:0)
$_147_z                               19.999999977228 	(obj:0)
$_151_y                                            21 	(obj:0)
$_151_z                              18.9999999940921 	(obj:0)
$_150_y                                            22 	(obj:0)
$_150_z                              19.0000000605573 	(obj:0)
$_137_y                                            25 	(obj:0)
$_137_z                                            23 	(obj:0)
$_149_y                              22.0000001603245 	(obj:0)
$_149_z                              19.9999999849459 	(obj:0)
$_145_y                              23.0000000558759 	(obj:0)
$_145_z                              19.0000001616471 	(obj:0)
$_146_y                              23.9999999379979 	(obj:0)
$_146_z                              18.9999999977492 	(obj:0)
x33                              -9.31842575131256e-09 	(obj:1)
x34                              -9.31842575131256e-09 	(obj:1)
x35                              -9.31842575131256e-09 	(obj:1)
x36                              -9.31842575131256e-09 	(obj:1)
x37                              -9.31547313807124e-09 	(obj:1)
x38                              -9.31842575131256e-09 	(obj:1)
x39                              -9.31842575131256e-09 	(obj:1)
x40                              -9.31842575131256e-09 	(obj:1)
x41                              -9.31437050960188e-09 	(obj:1)
x42                              -9.24626356729157e-09 	(obj:1)
x43                              -9.31842575131256e-09 	(obj:1)
x44                              -9.10866542848471e-09 	(obj:1)
x45                              -9.20478143096336e-09 	(obj:1)
x46                                 0.999999990686012 	(obj:1)
x47                              -8.63685146598322e-09 	(obj:1)
x48                              -8.63685146598322e-09 	(obj:1)
x49                              -9.26852941061745e-09 	(obj:1)
x50                              -9.2863226444551e-09 	(obj:1)
x51                              -9.29014044612933e-09 	(obj:1)
x52                              -9.29811671847386e-09 	(obj:1)
x53                              -9.31842575131256e-09 	(obj:1)
x54                              -9.31842575131256e-09 	(obj:1)
x55                              -9.31842575131256e-09 	(obj:1)
x56                              -9.31842575131256e-09 	(obj:1)
x57                              -9.31842575131256e-09 	(obj:1)
x58                              -8.63685146598322e-09 	(obj:1)
x59                              -9.31552109976764e-09 	(obj:1)
x60                              -9.28685222055562e-09 	(obj:1)
x61                              -9.30999990678917e-09 	(obj:1)
x62                              -9.31554305540953e-09 	(obj:1)
x63                              -9.31842575131256e-09 	(obj:1)
x64                              -9.31842575131256e-09 	(obj:1)
